20
1 0 2
2 0 3
2 1 1
3 0 1
3 1 1
3 2 1
4 0 2
4 1 3
4 2 4
4 3 2
5 0 3
5 1 2
5 2 3
5 3 1
5 4 1
6 0 2
6 1 4
6 2 2
6 3 2
6 4 1
6 5 4
7 0 2
7 1 3
7 2 3
7 3 3
7 4 2
7 5 3
7 6 4
8 0 4
8 1 3
8 2 2
8 3 4
8 4 1
8 5 1
8 6 1
8 7 4
9 0 1
9 1 3
9 2 2
9 3 1
9 4 1
9 5 4
9 6 2
9 7 4
9 8 1
10 0 2
10 1 1
10 2 1
10 3 4
10 4 4
10 5 1
10 6 3
10 7 3
10 8 2
10 9 4
11 0 3
11 1 2
11 2 4
11 3 3
11 4 3
11 5 1
11 6 4
11 7 3
11 8 1
11 9 4
11 10 3
12 0 3
12 1 2
12 2 3
12 3 4
12 4 4
12 5 1
12 6 3
12 7 2
12 8 3
12 9 1
12 10 2
12 11 3
13 0 2
13 1 1
13 2 4
13 3 2
13 4 1
13 5 1
13 6 1
13 7 1
13 8 3
13 9 1
13 10 1
13 11 4
13 12 4
14 0 3
14 1 4
14 2 3
14 3 3
14 4 2
14 5 3
14 6 1
14 7 1
14 8 1
14 9 4
14 10 4
14 11 4
14 12 1
14 13 2
15 0 3
15 1 3
15 2 1
15 3 2
15 4 3
15 5 3
15 6 2
15 7 4
15 8 3
15 9 4
15 10 3
15 11 2
15 12 2
15 13 4
15 14 1
16 0 4
16 1 4
16 2 4
16 3 4
16 4 1
16 5 1
16 6 3
16 7 1
16 8 3
16 9 4
16 10 3
16 11 3
16 12 1
16 13 2
16 14 3
16 15 2
17 0 2
17 1 2
17 2 3
17 3 3
17 4 3
17 5 4
17 6 3
17 7 4
17 8 4
17 9 3
17 10 2
17 11 1
17 12 2
17 13 1
17 14 1
17 15 4
17 16 4
18 0 4
18 1 3
18 2 2
18 3 4
18 4 4
18 5 2
18 6 4
18 7 1
18 8 1
18 9 2
18 10 4
18 11 1
18 12 1
18 13 3
18 14 1
18 15 4
18 16 3
18 17 1
19 0 1
19 1 3
19 2 3
19 3 2
19 4 2
19 5 3
19 6 4
19 7 4
19 8 1
19 9 2
19 10 2
19 11 2
19 12 2
19 13 4
19 14 4
19 15 4
19 16 4
19 17 3
19 18 2
